maximize
OBJ:100x0 + 100x1 + 100x2 + 100x3 + 100x4 + 100x5 + 100x6 + 100x7 + 100x8 + 100x9 + 100x10 + 100x11 + 100x12 + 100x13 + 100x14 + 100x15 + 100x16 + 100x17 + 100x18 + 100x19 + 100x20 + 100x21 + 100x22 + 100x23 + 100x24 + 100x25 + 100x26 + 100x27 + 100x28 + 100x29 + 100x30 + 100x31 + 100x32 + 100x33 + 100x34 + 100x35 + 100x36 + 100x37 + 100x38 + 100x39 + 100x40 + 100x41 + 100x42 + 100x43 + 100x44 + 100x45 + 100x46 + 100x47 + 100x48 + 100x49 + 100x50 + 100x51 + 100x52 + 100x53 + 100x54 + 100x55 + 100x56 + 100x57 + 100x58 + 100x59 + 100x60 + 100x61 - y47_53 - y15_30 - y26_30 - y7_26 - y26_39 - y28_58 - y7_35 - y18_35 - y29_32 - y18_44 - y8_18 - y40_50 - y29_59 - y21_55 - y10_36 - y25_34 - y33_47 - y44_47 - y25_52 - y3_15 - y22_28 - y32_60 - y22_37 - y14_33 - y36_48 - y55_61 - y18_21 - y47_57 - y28_53 - y18_30 - y29_36 - y6_43 - y40_45 - y40_54 - y10_22 - y33_42 - y2_36 - y25_38 - y44_51 - y3_10 - y10_58 - y3_19 - y43_55 - y3_28 - y14_28 - y13_60 - y36_43 - y28_39 - y36_52 - y36_61 - y9_44 - y28_57 - y6_38 - y21_36 - y6_56 - y21_54 - y2_40 - y43_50 - y13_46 - y1_53 - y14_32 - y17_34 - y5_41 - y28_43 - y36_56 - y47_56 - y28_52 - y9_48 - y21_49 - y2_8 - y2_17 - y31_53 - y23_58 - y2_35 - y51_58 - y24_41 - y35_41 - y3_18 - y32_54 - y24_50 - y35_50 - y13_59 - y17_20 - y5_27 - y17_29 - y17_38 - y6_10 - y9_43 - y5_54 - y29_30 - y9_61 - y6_37 - y6_46 - y31_48 - y2_21 - y20_57 - y31_57 - y2_30 - y4_49 - y13_27 - y3_4 - y4_58 - y1_34 - y32_58 - y43_58 - y1_52 - y24_54 - y35_54 - y16_50 - y5_22 - y17_24 - y36_37 - y9_20 - y57_60 - y28_33 - y28_42 - y5_58 - y6_23 - y50_57 - y8_51 - y30_60 - y2_7 - y20_43 - y31_43 - y39_56 - y12_48 - y20_61 - y13_22 - y4_53 - y32_44 - y35_40 - y13_49 - y46_55 - y9_15 - y9_24 - y38_60 - y5_35 - y9_33 - y8_46 - y42_48 - y50_61 - y8_55 - y19_55 - y20_29 - y0_60 - y39_42 - y20_38 - y2_11 - y31_47 - y23_52 - y1_15 - y34_58 - y24_44 - y35_44 - y16_49 - y46_50 - y17_23 - y46_59 - y5_30 - y9_28 - y7_58 - y6_13 - y8_32 - y27_45 - y8_41 - y42_43 - y11_37 - y0_46 - y19_59 - y31_33 - y39_46 - y12_29 - y31_42 - y12_38 - y12_47 - y4_43 - y1_19 - y4_52 - y1_28 - y4_61 - y1_37 - y38_41 - y5_16 - y15_48 - y49_59 - y27_31 - y27_40 - y50_51 - y19_45 - y42_47 - y27_58 - y0_41 - y11_50 - y4_11 - y11_59 - y23_24 - y52_60 - y4_20 - y23_33 - y4_29 - y1_5 - y34_39 - y45_48 - y53_61 - y34_57 - y45_57 - y3_51 - y46_49 - y18_39 - y19_22 - y27_35 - y0_27 - y27_53 - y0_45 - y41_46 - y20_23 - y52_55 - y33_51 - y12_28 - y1_9 - y22_41 - y1_18 - y45_61 - y37_57 - y15_20 - y7_34 - y18_34 - y7_43 - y26_56 - y8_17 - y7_61 - y27_39 - y19_35 - y30_35 - y0_31 - y8_44 - y0_40 - y11_40 - y11_49 - y12_14 - y4_10 - y52_59 - y33_55 - y44_55 - y25_51 - y25_60 - y3_41 - y37_43 - y22_54 - y45_56 - y14_50 - y3_50 - y3_59 - y14_59 - y7_20 - y18_20 - y15_33 - y26_33 - y18_29 - y15_42 - y18_38 - y7_47 - y18_47 - y29_53 - y8_30 - y0_26 - y25_37 - y33_50 - y25_46 - y25_55 - y22_31 - y3_27 - y14_27 - y34_42 - y3_36 - y14_36 - y37_47 - y22_58 - y15_28 - y26_28 - y7_24 - y7_33 - y18_33 - y18_42 - y29_39 - y48_52 - y11_30 - y41_49 - y41_58 - y2_57 - y22_35 - y34_37 - y14_31 - y37_42 - y22_53 - y15_23 - y17_51 - y28_51 - y7_28 - y17_60 - y18_37 - y9_56 - y8_11 - y48_56 - y21_39 - y6_59 - y21_57 - y2_25 - y10_47 - y10_56 - y25_54 - y14_17 - y22_30 - y2_61 - y3_26 - y14_26 - y22_39 - y3_35 - y15_18 - y7_14 - y17_46 - y28_46 - y47_59 - y9_42 - y28_55 - y9_60 - y21_25 - y0_2 - y21_43 - y21_52 - y10_15 - y10_33 - y33_35 - y2_29 - y10_42 - y33_44 - y25_40 - y51_52 - y3_12 - y32_48 - y51_61 - y2_56 - y3_21 - y32_57 - y1_60 - y16_58 - y36_45 - y55_58 - y36_54 - y29_33 - y21_38 - y20_60 - y25_26 - y10_37 - y25_35 - y35_39 - y3_25 - y43_61 - y17_18 - y36_49 - y17_45 - y6_8 - y17_54 - y6_17 - y28_54 - y9_50 - y5_61 - y21_24 - y50_60 - y6_35 - y29_37 - y20_46 - y31_55 - y12_51 - y23_51 - y2_28 - y23_60 - y13_25 - y24_34 - y32_47 - y51_60 - y13_43 - y32_56 - y13_52 - y16_48 - y13_61 - y5_20 - y17_22 - y5_29 - y17_31 - y36_44 - y9_27 - y5_38 - y17_40 - y28_40 - y17_49 - y5_47 - y6_12 - y28_49 - y58_59 - y19_58 - y39_54 - y31_50 - y54_61 - y4_42 - y23_55 - y4_51 - y24_29 - y32_42 - y51_55 - y1_36 - y16_34 - y16_43 - y24_56 - y16_52 - y5_24 - y36_39 - y9_22 - y5_33 - y9_40 - y6_25 - y21_23 - y42_55 - y0_49 - y20_36 - y39_49 - y23_32 - y2_9 - y20_45 - y39_58 - y2_18 - y4_37 - y31_54 - y12_50 - y13_15 - y23_50 - y24_33 - y32_46 - y16_29 - y13_42 - y35_42 - y1_49 - y24_51 - y35_51 - y46_48 - y17_21 - y5_28 - y5_37 - y27_34 - y6_11 - y30_39 - y42_50 - y27_61 - y11_44 - y30_57 - y39_44 - y23_27 - y20_40 - y23_45 - y31_58 - y4_41 - y1_17 - y13_19 - y4_50 - y34_60 - y1_35 - y24_37 - y35_37 - y5_14 - y9_12 - y5_23 - y5_32 - y7_51 - y27_29 - y30_43 - y42_54 - y19_61 - y12_22 - y20_44 - y13_14 - y4_45 - y37_51 - y16_28 - y3_58 - y15_50 - y38_61 - y7_55 - y8_20 - y27_33 - y27_42 - y27_51 - y8_47 - y11_43 - y19_56 - y12_17 - y52_53 - y11_61 - y12_26 - y23_26 - y31_39 - y33_58 - y4_31 - y13_18 - y53_54 - y34_59 - y45_59 - y56_59 - y3_53 - y15_27 - y15_36 - y26_36 - y7_32 - y15_45 - y18_41 - y15_54 - y26_54 - y18_59 - y19_24 - y27_37 - y0_20 - y19_33 - y30_33 - y8_42 - y11_38 - y60_61 - y12_21 - y4_26 - y25_58 - y34_36 - y1_11 - y14_39 - y45_54 - y15_22 - y15_31 - y26_31 - y7_27 - y18_36 - y18_45 - y15_58 - y0_6 - y18_54 - y8_19 - y0_15 - y29_60 - y19_37 - y8_37 - y0_42 - y11_42 - y41_43 - y10_46 - y52_61 - y10_55 - y33_57 - y44_57 - y25_53 - y1_6 - y3_34 - y22_47 - y45_49 - y14_43 - y3_61 - y59_60 - y26_35 - y7_40 - y0_10 - y40_46 - y40_55 - y21_51 - y41_47 - y10_41 - y52_56 - y25_48 - y25_57 - y34_35 - y3_56
 Subject to
C1: x0+x2-y0_2 <=1 
C2: x0+x3 <=1 
C3: x0+x4 <=1 
C4: x0+x6-y0_6 <=1 
C5: x0+x10-y0_10 <=1 
C6: x0+x13 <=1 
C7: x0+x14 <=1 
C8: x0+x15-y0_15 <=1 
C9: x0+x16 <=1 
C10: x0+x17 <=1 
C11: x0+x20-y0_20 <=1 
C12: x0+x26-y0_26 <=1 
C13: x0+x27-y0_27 <=1 
C14: x0+x28 <=1 
C15: x0+x30 <=1 
C16: x0+x31-y0_31 <=1 
C17: x0+x33 <=1 
C18: x0+x40-y0_40 <=1 
C19: x0+x41-y0_41 <=1 
C20: x0+x42-y0_42 <=1 
C21: x0+x43 <=1 
C22: x0+x45-y0_45 <=1 
C23: x0+x46-y0_46 <=1 
C24: x0+x48 <=1 
C25: x0+x49-y0_49 <=1 
C26: x0+x53 <=1 
C27: x0+x55 <=1 
C28: x0+x56 <=1 
C29: x0+x59 <=1 
C30: x0+x60-y0_60 <=1 
C31: x1+x2 <=1 
C32: x1+x4 <=1 
C33: x1+x5-y1_5 <=1 
C34: x1+x6-y1_6 <=1 
C35: x1+x7 <=1 
C36: x1+x9-y1_9 <=1 
C37: x1+x10 <=1 
C38: x1+x11-y1_11 <=1 
C39: x1+x15-y1_15 <=1 
C40: x1+x16 <=1 
C41: x1+x17-y1_17 <=1 
C42: x1+x18-y1_18 <=1 
C43: x1+x19-y1_19 <=1 
C44: x1+x20 <=1 
C45: x1+x22 <=1 
C46: x1+x24 <=1 
C47: x1+x28-y1_28 <=1 
C48: x1+x31 <=1 
C49: x1+x34-y1_34 <=1 
C50: x1+x35-y1_35 <=1 
C51: x1+x36-y1_36 <=1 
C52: x1+x37-y1_37 <=1 
C53: x1+x42 <=1 
C54: x1+x44 <=1 
C55: x1+x45 <=1 
C56: x1+x49-y1_49 <=1 
C57: x1+x50 <=1 
C58: x1+x51 <=1 
C59: x1+x52-y1_52 <=1 
C60: x1+x53-y1_53 <=1 
C61: x1+x56 <=1 
C62: x1+x57 <=1 
C63: x1+x60-y1_60 <=1 
C64: x1+x61 <=1 
C65: x2+x3 <=1 
C66: x2+x4 <=1 
C67: x2+x5 <=1 
C68: x2+x7-y2_7 <=1 
C69: x2+x8-y2_8 <=1 
C70: x2+x9-y2_9 <=1 
C71: x2+x10 <=1 
C72: x2+x11-y2_11 <=1 
C73: x2+x17-y2_17 <=1 
C74: x2+x18-y2_18 <=1 
C75: x2+x20 <=1 
C76: x2+x21-y2_21 <=1 
C77: x2+x23 <=1 
C78: x2+x25-y2_25 <=1 
C79: x2+x27 <=1 
C80: x2+x28-y2_28 <=1 
C81: x2+x29-y2_29 <=1 
C82: x2+x30-y2_30 <=1 
C83: x2+x31 <=1 
C84: x2+x32 <=1 
C85: x2+x33 <=1 
C86: x2+x34 <=1 
C87: x2+x35-y2_35 <=1 
C88: x2+x36-y2_36 <=1 
C89: x2+x37 <=1 
C90: x2+x38 <=1 
C91: x2+x40-y2_40 <=1 
C92: x2+x42 <=1 
C93: x2+x47 <=1 
C94: x2+x49 <=1 
C95: x2+x51 <=1 
C96: x2+x52 <=1 
C97: x2+x54 <=1 
C98: x2+x56-y2_56 <=1 
C99: x2+x57-y2_57 <=1 
C100: x2+x59 <=1 
C101: x2+x60 <=1 
C102: x2+x61-y2_61 <=1 
C103: x3+x4-y3_4 <=1 
C104: x3+x5 <=1 
C105: x3+x7 <=1 
C106: x3+x8 <=1 
C107: x3+x10-y3_10 <=1 
C108: x3+x12-y3_12 <=1 
C109: x3+x15-y3_15 <=1 
C110: x3+x16 <=1 
C111: x3+x17 <=1 
C112: x3+x18-y3_18 <=1 
C113: x3+x19-y3_19 <=1 
C114: x3+x21-y3_21 <=1 
C115: x3+x24 <=1 
C116: x3+x25-y3_25 <=1 
C117: x3+x26-y3_26 <=1 
C118: x3+x27-y3_27 <=1 
C119: x3+x28-y3_28 <=1 
C120: x3+x30 <=1 
C121: x3+x33 <=1 
C122: x3+x34-y3_34 <=1 
C123: x3+x35-y3_35 <=1 
C124: x3+x36-y3_36 <=1 
C125: x3+x38 <=1 
C126: x3+x39 <=1 
C127: x3+x41-y3_41 <=1 
C128: x3+x42 <=1 
C129: x3+x48 <=1 
C130: x3+x50-y3_50 <=1 
C131: x3+x51-y3_51 <=1 
C132: x3+x52 <=1 
C133: x3+x53-y3_53 <=1 
C134: x3+x54 <=1 
C135: x3+x56-y3_56 <=1 
C136: x3+x58-y3_58 <=1 
C137: x3+x59-y3_59 <=1 
C138: x3+x61-y3_61 <=1 
C139: x4+x9 <=1 
C140: x4+x10-y4_10 <=1 
C141: x4+x11-y4_11 <=1 
C142: x4+x12 <=1 
C143: x4+x13 <=1 
C144: x4+x14 <=1 
C145: x4+x15 <=1 
C146: x4+x19 <=1 
C147: x4+x20-y4_20 <=1 
C148: x4+x23 <=1 
C149: x4+x24 <=1 
C150: x4+x25 <=1 
C151: x4+x26-y4_26 <=1 
C152: x4+x28 <=1 
C153: x4+x29-y4_29 <=1 
C154: x4+x31-y4_31 <=1 
C155: x4+x34 <=1 
C156: x4+x35 <=1 
C157: x4+x37-y4_37 <=1 
C158: x4+x40 <=1 
C159: x4+x41-y4_41 <=1 
C160: x4+x42-y4_42 <=1 
C161: x4+x43-y4_43 <=1 
C162: x4+x44 <=1 
C163: x4+x45-y4_45 <=1 
C164: x4+x48 <=1 
C165: x4+x49-y4_49 <=1 
C166: x4+x50-y4_50 <=1 
C167: x4+x51-y4_51 <=1 
C168: x4+x52-y4_52 <=1 
C169: x4+x53-y4_53 <=1 
C170: x4+x55 <=1 
C171: x4+x57 <=1 
C172: x4+x58-y4_58 <=1 
C173: x4+x59 <=1 
C174: x4+x61-y4_61 <=1 
C175: x5+x7 <=1 
C176: x5+x9 <=1 
C177: x5+x11 <=1 
C178: x5+x12 <=1 
C179: x5+x14-y5_14 <=1 
C180: x5+x15 <=1 
C181: x5+x16-y5_16 <=1 
C182: x5+x18 <=1 
C183: x5+x20-y5_20 <=1 
C184: x5+x22-y5_22 <=1 
C185: x5+x23-y5_23 <=1 
C186: x5+x24-y5_24 <=1 
C187: x5+x27-y5_27 <=1 
C188: x5+x28-y5_28 <=1 
C189: x5+x29-y5_29 <=1 
C190: x5+x30-y5_30 <=1 
C191: x5+x31 <=1 
C192: x5+x32-y5_32 <=1 
C193: x5+x33-y5_33 <=1 
C194: x5+x35-y5_35 <=1 
C195: x5+x37-y5_37 <=1 
C196: x5+x38-y5_38 <=1 
C197: x5+x41-y5_41 <=1 
C198: x5+x43 <=1 
C199: x5+x44 <=1 
C200: x5+x45 <=1 
C201: x5+x46 <=1 
C202: x5+x47-y5_47 <=1 
C203: x5+x48 <=1 
C204: x5+x50 <=1 
C205: x5+x54-y5_54 <=1 
C206: x5+x55 <=1 
C207: x5+x56 <=1 
C208: x5+x58-y5_58 <=1 
C209: x5+x61-y5_61 <=1 
C210: x6+x8-y6_8 <=1 
C211: x6+x9 <=1 
C212: x6+x10-y6_10 <=1 
C213: x6+x11-y6_11 <=1 
C214: x6+x12-y6_12 <=1 
C215: x6+x13-y6_13 <=1 
C216: x6+x14 <=1 
C217: x6+x15 <=1 
C218: x6+x17-y6_17 <=1 
C219: x6+x18 <=1 
C220: x6+x21 <=1 
C221: x6+x22 <=1 
C222: x6+x23-y6_23 <=1 
C223: x6+x25-y6_25 <=1 
C224: x6+x26 <=1 
C225: x6+x27 <=1 
C226: x6+x28 <=1 
C227: x6+x29 <=1 
C228: x6+x30 <=1 
C229: x6+x32 <=1 
C230: x6+x34 <=1 
C231: x6+x35-y6_35 <=1 
C232: x6+x36 <=1 
C233: x6+x37-y6_37 <=1 
C234: x6+x38-y6_38 <=1 
C235: x6+x42 <=1 
C236: x6+x43-y6_43 <=1 
C237: x6+x45 <=1 
C238: x6+x46-y6_46 <=1 
C239: x6+x49 <=1 
C240: x6+x52 <=1 
C241: x6+x53 <=1 
C242: x6+x54 <=1 
C243: x6+x55 <=1 
C244: x6+x56-y6_56 <=1 
C245: x6+x59-y6_59 <=1 
C246: x6+x60 <=1 
C247: x7+x9 <=1 
C248: x7+x10 <=1 
C249: x7+x12 <=1 
C250: x7+x14-y7_14 <=1 
C251: x7+x15 <=1 
C252: x7+x18 <=1 
C253: x7+x20-y7_20 <=1 
C254: x7+x22 <=1 
C255: x7+x23 <=1 
C256: x7+x24-y7_24 <=1 
C257: x7+x26-y7_26 <=1 
C258: x7+x27-y7_27 <=1 
C259: x7+x28-y7_28 <=1 
C260: x7+x32-y7_32 <=1 
C261: x7+x33-y7_33 <=1 
C262: x7+x34-y7_34 <=1 
C263: x7+x35-y7_35 <=1 
C264: x7+x40-y7_40 <=1 
C265: x7+x43-y7_43 <=1 
C266: x7+x47-y7_47 <=1 
C267: x7+x49 <=1 
C268: x7+x51-y7_51 <=1 
C269: x7+x52 <=1 
C270: x7+x54 <=1 
C271: x7+x55-y7_55 <=1 
C272: x7+x58-y7_58 <=1 
C273: x7+x61-y7_61 <=1 
C274: x8+x11-y8_11 <=1 
C275: x8+x16 <=1 
C276: x8+x17-y8_17 <=1 
C277: x8+x18-y8_18 <=1 
C278: x8+x19-y8_19 <=1 
C279: x8+x20-y8_20 <=1 
C280: x8+x22 <=1 
C281: x8+x23 <=1 
C282: x8+x26 <=1 
C283: x8+x28 <=1 
C284: x8+x30-y8_30 <=1 
C285: x8+x32-y8_32 <=1 
C286: x8+x37-y8_37 <=1 
C287: x8+x40 <=1 
C288: x8+x41-y8_41 <=1 
C289: x8+x42-y8_42 <=1 
C290: x8+x44-y8_44 <=1 
C291: x8+x46-y8_46 <=1 
C292: x8+x47-y8_47 <=1 
C293: x8+x48 <=1 
C294: x8+x50 <=1 
C295: x8+x51-y8_51 <=1 
C296: x8+x52 <=1 
C297: x8+x53 <=1 
C298: x8+x55-y8_55 <=1 
C299: x8+x60 <=1 
C300: x9+x11 <=1 
C301: x9+x12-y9_12 <=1 
C302: x9+x13 <=1 
C303: x9+x14 <=1 
C304: x9+x15-y9_15 <=1 
C305: x9+x17 <=1 
C306: x9+x19 <=1 
C307: x9+x20-y9_20 <=1 
C308: x9+x22-y9_22 <=1 
C309: x9+x24-y9_24 <=1 
C310: x9+x26 <=1 
C311: x9+x27-y9_27 <=1 
C312: x9+x28-y9_28 <=1 
C313: x9+x29 <=1 
C314: x9+x33-y9_33 <=1 
C315: x9+x34 <=1 
C316: x9+x35 <=1 
C317: x9+x37 <=1 
C318: x9+x40-y9_40 <=1 
C319: x9+x41 <=1 
C320: x9+x42-y9_42 <=1 
C321: x9+x43-y9_43 <=1 
C322: x9+x44-y9_44 <=1 
C323: x9+x48-y9_48 <=1 
C324: x9+x50-y9_50 <=1 
C325: x9+x51 <=1 
C326: x9+x52 <=1 
C327: x9+x54 <=1 
C328: x9+x56-y9_56 <=1 
C329: x9+x60-y9_60 <=1 
C330: x9+x61-y9_61 <=1 
C331: x10+x13 <=1 
C332: x10+x14 <=1 
C333: x10+x15-y10_15 <=1 
C334: x10+x16 <=1 
C335: x10+x22-y10_22 <=1 
C336: x10+x28 <=1 
C337: x10+x30 <=1 
C338: x10+x31 <=1 
C339: x10+x32 <=1 
C340: x10+x33-y10_33 <=1 
C341: x10+x34 <=1 
C342: x10+x35 <=1 
C343: x10+x36-y10_36 <=1 
C344: x10+x37-y10_37 <=1 
C345: x10+x38 <=1 
C346: x10+x40 <=1 
C347: x10+x41-y10_41 <=1 
C348: x10+x42-y10_42 <=1 
C349: x10+x44 <=1 
C350: x10+x46-y10_46 <=1 
C351: x10+x47-y10_47 <=1 
C352: x10+x48 <=1 
C353: x10+x49 <=1 
C354: x10+x50 <=1 
C355: x10+x52 <=1 
C356: x10+x54 <=1 
C357: x10+x55-y10_55 <=1 
C358: x10+x56-y10_56 <=1 
C359: x10+x57 <=1 
C360: x10+x58-y10_58 <=1 
C361: x10+x59 <=1 
C362: x11+x15 <=1 
C363: x11+x19 <=1 
C364: x11+x20 <=1 
C365: x11+x25 <=1 
C366: x11+x27 <=1 
C367: x11+x29 <=1 
C368: x11+x30-y11_30 <=1 
C369: x11+x31 <=1 
C370: x11+x32 <=1 
C371: x11+x33 <=1 
C372: x11+x37-y11_37 <=1 
C373: x11+x38-y11_38 <=1 
C374: x11+x39 <=1 
C375: x11+x40-y11_40 <=1 
C376: x11+x42-y11_42 <=1 
C377: x11+x43-y11_43 <=1 
C378: x11+x44-y11_44 <=1 
C379: x11+x49-y11_49 <=1 
C380: x11+x50-y11_50 <=1 
C381: x11+x51 <=1 
C382: x11+x53 <=1 
C383: x11+x54 <=1 
C384: x11+x55 <=1 
C385: x11+x56 <=1 
C386: x11+x59-y11_59 <=1 
C387: x11+x60 <=1 
C388: x11+x61-y11_61 <=1 
C389: x12+x14-y12_14 <=1 
C390: x12+x17-y12_17 <=1 
C391: x12+x18 <=1 
C392: x12+x19 <=1 
C393: x12+x21-y12_21 <=1 
C394: x12+x22-y12_22 <=1 
C395: x12+x26-y12_26 <=1 
C396: x12+x27 <=1 
C397: x12+x28-y12_28 <=1 
C398: x12+x29-y12_29 <=1 
C399: x12+x30 <=1 
C400: x12+x32 <=1 
C401: x12+x34 <=1 
C402: x12+x36 <=1 
C403: x12+x38-y12_38 <=1 
C404: x12+x39 <=1 
C405: x12+x40 <=1 
C406: x12+x41 <=1 
C407: x12+x43 <=1 
C408: x12+x45 <=1 
C409: x12+x47-y12_47 <=1 
C410: x12+x48-y12_48 <=1 
C411: x12+x50-y12_50 <=1 
C412: x12+x51-y12_51 <=1 
C413: x12+x55 <=1 
C414: x12+x57 <=1 
C415: x13+x14-y13_14 <=1 
C416: x13+x15-y13_15 <=1 
C417: x13+x17 <=1 
C418: x13+x18-y13_18 <=1 
C419: x13+x19-y13_19 <=1 
C420: x13+x21 <=1 
C421: x13+x22-y13_22 <=1 
C422: x13+x23 <=1 
C423: x13+x25-y13_25 <=1 
C424: x13+x27-y13_27 <=1 
C425: x13+x29 <=1 
C426: x13+x36 <=1 
C427: x13+x37 <=1 
C428: x13+x38 <=1 
C429: x13+x40 <=1 
C430: x13+x41 <=1 
C431: x13+x42-y13_42 <=1 
C432: x13+x43-y13_43 <=1 
C433: x13+x45 <=1 
C434: x13+x46-y13_46 <=1 
C435: x13+x47 <=1 
C436: x13+x49-y13_49 <=1 
C437: x13+x50 <=1 
C438: x13+x51 <=1 
C439: x13+x52-y13_52 <=1 
C440: x13+x57 <=1 
C441: x13+x58 <=1 
C442: x13+x59-y13_59 <=1 
C443: x13+x60-y13_60 <=1 
C444: x13+x61-y13_61 <=1 
C445: x14+x15 <=1 
C446: x14+x16 <=1 
C447: x14+x17-y14_17 <=1 
C448: x14+x18 <=1 
C449: x14+x19 <=1 
C450: x14+x20 <=1 
C451: x14+x21 <=1 
C452: x14+x22 <=1 
C453: x14+x23 <=1 
C454: x14+x24 <=1 
C455: x14+x25 <=1 
C456: x14+x26-y14_26 <=1 
C457: x14+x27-y14_27 <=1 
C458: x14+x28-y14_28 <=1 
C459: x14+x29 <=1 
C460: x14+x30 <=1 
C461: x14+x31-y14_31 <=1 
C462: x14+x32-y14_32 <=1 
C463: x14+x33-y14_33 <=1 
C464: x14+x34 <=1 
C465: x14+x36-y14_36 <=1 
C466: x14+x37 <=1 
C467: x14+x38 <=1 
C468: x14+x39-y14_39 <=1 
C469: x14+x43-y14_43 <=1 
C470: x14+x44 <=1 
C471: x14+x46 <=1 
C472: x14+x47 <=1 
C473: x14+x50-y14_50 <=1 
C474: x14+x51 <=1 
C475: x14+x58 <=1 
C476: x14+x59-y14_59 <=1 
C477: x15+x18-y15_18 <=1 
C478: x15+x20-y15_20 <=1 
C479: x15+x21 <=1 
C480: x15+x22-y15_22 <=1 
C481: x15+x23-y15_23 <=1 
C482: x15+x25 <=1 
C483: x15+x26 <=1 
C484: x15+x27-y15_27 <=1 
C485: x15+x28-y15_28 <=1 
C486: x15+x29 <=1 
C487: x15+x30-y15_30 <=1 
C488: x15+x31-y15_31 <=1 
C489: x15+x32 <=1 
C490: x15+x33-y15_33 <=1 
C491: x15+x35 <=1 
C492: x15+x36-y15_36 <=1 
C493: x15+x37 <=1 
C494: x15+x38 <=1 
C495: x15+x39 <=1 
C496: x15+x40 <=1 
C497: x15+x42-y15_42 <=1 
C498: x15+x44 <=1 
C499: x15+x45-y15_45 <=1 
C500: x15+x48-y15_48 <=1 
C501: x15+x49 <=1 
C502: x15+x50-y15_50 <=1 
C503: x15+x51 <=1 
C504: x15+x53 <=1 
C505: x15+x54-y15_54 <=1 
C506: x15+x55 <=1 
C507: x15+x57 <=1 
C508: x15+x58-y15_58 <=1 
C509: x15+x59 <=1 
C510: x15+x60 <=1 
C511: x15+x61 <=1 
C512: x16+x17 <=1 
C513: x16+x18 <=1 
C514: x16+x21 <=1 
C515: x16+x22 <=1 
C516: x16+x24 <=1 
C517: x16+x28-y16_28 <=1 
C518: x16+x29-y16_29 <=1 
C519: x16+x30 <=1 
C520: x16+x34-y16_34 <=1 
C521: x16+x39 <=1 
C522: x16+x40 <=1 
C523: x16+x41 <=1 
C524: x16+x42 <=1 
C525: x16+x43-y16_43 <=1 
C526: x16+x45 <=1 
C527: x16+x48-y16_48 <=1 
C528: x16+x49-y16_49 <=1 
C529: x16+x50-y16_50 <=1 
C530: x16+x52-y16_52 <=1 
C531: x16+x54 <=1 
C532: x16+x55 <=1 
C533: x16+x57 <=1 
C534: x16+x58-y16_58 <=1 
C535: x16+x59 <=1 
C536: x16+x61 <=1 
C537: x17+x18-y17_18 <=1 
C538: x17+x20-y17_20 <=1 
C539: x17+x21-y17_21 <=1 
C540: x17+x22-y17_22 <=1 
C541: x17+x23-y17_23 <=1 
C542: x17+x24-y17_24 <=1 
C543: x17+x27 <=1 
C544: x17+x28 <=1 
C545: x17+x29-y17_29 <=1 
C546: x17+x31-y17_31 <=1 
C547: x17+x34-y17_34 <=1 
C548: x17+x35 <=1 
C549: x17+x38-y17_38 <=1 
C550: x17+x39 <=1 
C551: x17+x40-y17_40 <=1 
C552: x17+x41 <=1 
C553: x17+x44 <=1 
C554: x17+x45-y17_45 <=1 
C555: x17+x46-y17_46 <=1 
C556: x17+x49-y17_49 <=1 
C557: x17+x51-y17_51 <=1 
C558: x17+x52 <=1 
C559: x17+x53 <=1 
C560: x17+x54-y17_54 <=1 
C561: x17+x57 <=1 
C562: x17+x60-y17_60 <=1 
C563: x17+x61 <=1 
C564: x18+x20-y18_20 <=1 
C565: x18+x21-y18_21 <=1 
C566: x18+x23 <=1 
C567: x18+x24 <=1 
C568: x18+x25 <=1 
C569: x18+x27 <=1 
C570: x18+x29-y18_29 <=1 
C571: x18+x30-y18_30 <=1 
C572: x18+x31 <=1 
C573: x18+x32 <=1 
C574: x18+x33-y18_33 <=1 
C575: x18+x34-y18_34 <=1 
C576: x18+x35-y18_35 <=1 
C577: x18+x36-y18_36 <=1 
C578: x18+x37-y18_37 <=1 
C579: x18+x38-y18_38 <=1 
C580: x18+x39-y18_39 <=1 
C581: x18+x40 <=1 
C582: x18+x41-y18_41 <=1 
C583: x18+x42-y18_42 <=1 
C584: x18+x43 <=1 
C585: x18+x44-y18_44 <=1 
C586: x18+x45-y18_45 <=1 
C587: x18+x47-y18_47 <=1 
C588: x18+x50 <=1 
C589: x18+x51 <=1 
C590: x18+x52 <=1 
C591: x18+x53 <=1 
C592: x18+x54-y18_54 <=1 
C593: x18+x58 <=1 
C594: x18+x59-y18_59 <=1 
C595: x18+x61 <=1 
C596: x19+x22-y19_22 <=1 
C597: x19+x24-y19_24 <=1 
C598: x19+x26 <=1 
C599: x19+x28 <=1 
C600: x19+x32 <=1 
C601: x19+x33-y19_33 <=1 
C602: x19+x35-y19_35 <=1 
C603: x19+x36 <=1 
C604: x19+x37-y19_37 <=1 
C605: x19+x39 <=1 
C606: x19+x41 <=1 
C607: x19+x42 <=1 
C608: x19+x44 <=1 
C609: x19+x45-y19_45 <=1 
C610: x19+x49 <=1 
C611: x19+x52 <=1 
C612: x19+x54 <=1 
C613: x19+x55-y19_55 <=1 
C614: x19+x56-y19_56 <=1 
C615: x19+x57 <=1 
C616: x19+x58-y19_58 <=1 
C617: x19+x59-y19_59 <=1 
C618: x19+x61-y19_61 <=1 
C619: x20+x22 <=1 
C620: x20+x23-y20_23 <=1 
C621: x20+x24 <=1 
C622: x20+x28 <=1 
C623: x20+x29-y20_29 <=1 
C624: x20+x31 <=1 
C625: x20+x32 <=1 
C626: x20+x33 <=1 
C627: x20+x34 <=1 
C628: x20+x36-y20_36 <=1 
C629: x20+x37 <=1 
C630: x20+x38-y20_38 <=1 
C631: x20+x40-y20_40 <=1 
C632: x20+x41 <=1 
C633: x20+x43-y20_43 <=1 
C634: x20+x44-y20_44 <=1 
C635: x20+x45-y20_45 <=1 
C636: x20+x46-y20_46 <=1 
C637: x20+x47 <=1 
C638: x20+x49 <=1 
C639: x20+x54 <=1 
C640: x20+x55 <=1 
C641: x20+x57-y20_57 <=1 
C642: x20+x60-y20_60 <=1 
C643: x20+x61-y20_61 <=1 
C644: x21+x22 <=1 
C645: x21+x23-y21_23 <=1 
C646: x21+x24-y21_24 <=1 
C647: x21+x25-y21_25 <=1 
C648: x21+x27 <=1 
C649: x21+x31 <=1 
C650: x21+x32 <=1 
C651: x21+x33 <=1 
C652: x21+x36-y21_36 <=1 
C653: x21+x37 <=1 
C654: x21+x38-y21_38 <=1 
C655: x21+x39-y21_39 <=1 
C656: x21+x41 <=1 
C657: x21+x43-y21_43 <=1 
C658: x21+x47 <=1 
C659: x21+x49-y21_49 <=1 
C660: x21+x51-y21_51 <=1 
C661: x21+x52-y21_52 <=1 
C662: x21+x54-y21_54 <=1 
C663: x21+x55-y21_55 <=1 
C664: x21+x57-y21_57 <=1 
C665: x21+x58 <=1 
C666: x21+x59 <=1 
C667: x21+x60 <=1 
C668: x21+x61 <=1 
C669: x22+x24 <=1 
C670: x22+x26 <=1 
C671: x22+x27 <=1 
C672: x22+x28-y22_28 <=1 
C673: x22+x29 <=1 
C674: x22+x30-y22_30 <=1 
C675: x22+x31-y22_31 <=1 
C676: x22+x32 <=1 
C677: x22+x34 <=1 
C678: x22+x35-y22_35 <=1 
C679: x22+x36 <=1 
C680: x22+x37-y22_37 <=1 
C681: x22+x39-y22_39 <=1 
C682: x22+x40 <=1 
C683: x22+x41-y22_41 <=1 
C684: x22+x47-y22_47 <=1 
C685: x22+x53-y22_53 <=1 
C686: x22+x54-y22_54 <=1 
C687: x22+x56 <=1 
C688: x22+x58-y22_58 <=1 
C689: x22+x59 <=1 
C690: x22+x60 <=1 
C691: x22+x61 <=1 
C692: x23+x24-y23_24 <=1 
C693: x23+x26-y23_26 <=1 
C694: x23+x27-y23_27 <=1 
C695: x23+x30 <=1 
C696: x23+x32-y23_32 <=1 
C697: x23+x33-y23_33 <=1 
C698: x23+x34 <=1 
C699: x23+x39 <=1 
C700: x23+x44 <=1 
C701: x23+x45-y23_45 <=1 
C702: x23+x48 <=1 
C703: x23+x50-y23_50 <=1 
C704: x23+x51-y23_51 <=1 
C705: x23+x52-y23_52 <=1 
C706: x23+x54 <=1 
C707: x23+x55-y23_55 <=1 
C708: x23+x58-y23_58 <=1 
C709: x23+x59 <=1 
C710: x23+x60-y23_60 <=1 
C711: x23+x61 <=1 
C712: x24+x25 <=1 
C713: x24+x26 <=1 
C714: x24+x28 <=1 
C715: x24+x29-y24_29 <=1 
C716: x24+x31 <=1 
C717: x24+x32 <=1 
C718: x24+x33-y24_33 <=1 
C719: x24+x34-y24_34 <=1 
C720: x24+x35 <=1 
C721: x24+x37-y24_37 <=1 
C722: x24+x40 <=1 
C723: x24+x41-y24_41 <=1 
C724: x24+x42 <=1 
C725: x24+x44-y24_44 <=1 
C726: x24+x50-y24_50 <=1 
C727: x24+x51-y24_51 <=1 
C728: x24+x54-y24_54 <=1 
C729: x24+x55 <=1 
C730: x24+x56-y24_56 <=1 
C731: x24+x57 <=1 
C732: x24+x59 <=1 
C733: x24+x60 <=1 
C734: x25+x26-y25_26 <=1 
C735: x25+x28 <=1 
C736: x25+x30 <=1 
C737: x25+x31 <=1 
C738: x25+x34-y25_34 <=1 
C739: x25+x35-y25_35 <=1 
C740: x25+x36 <=1 
C741: x25+x37-y25_37 <=1 
C742: x25+x38-y25_38 <=1 
C743: x25+x40-y25_40 <=1 
C744: x25+x44 <=1 
C745: x25+x46-y25_46 <=1 
C746: x25+x47 <=1 
C747: x25+x48-y25_48 <=1 
C748: x25+x51-y25_51 <=1 
C749: x25+x52-y25_52 <=1 
C750: x25+x53-y25_53 <=1 
C751: x25+x54-y25_54 <=1 
C752: x25+x55-y25_55 <=1 
C753: x25+x56 <=1 
C754: x25+x57-y25_57 <=1 
C755: x25+x58-y25_58 <=1 
C756: x25+x60-y25_60 <=1 
C757: x25+x61 <=1 
C758: x26+x28-y26_28 <=1 
C759: x26+x29 <=1 
C760: x26+x30-y26_30 <=1 
C761: x26+x31-y26_31 <=1 
C762: x26+x32 <=1 
C763: x26+x33-y26_33 <=1 
C764: x26+x35-y26_35 <=1 
C765: x26+x36-y26_36 <=1 
C766: x26+x37 <=1 
C767: x26+x39-y26_39 <=1 
C768: x26+x40 <=1 
C769: x26+x42 <=1 
C770: x26+x45 <=1 
C771: x26+x47 <=1 
C772: x26+x48 <=1 
C773: x26+x49 <=1 
C774: x26+x52 <=1 
C775: x26+x53 <=1 
C776: x26+x54-y26_54 <=1 
C777: x26+x55 <=1 
C778: x26+x56-y26_56 <=1 
C779: x26+x57 <=1 
C780: x26+x60 <=1 
C781: x26+x61 <=1 
C782: x27+x29-y27_29 <=1 
C783: x27+x30 <=1 
C784: x27+x31-y27_31 <=1 
C785: x27+x33-y27_33 <=1 
C786: x27+x34-y27_34 <=1 
C787: x27+x35-y27_35 <=1 
C788: x27+x36 <=1 
C789: x27+x37-y27_37 <=1 
C790: x27+x38 <=1 
C791: x27+x39-y27_39 <=1 
C792: x27+x40-y27_40 <=1 
C793: x27+x41 <=1 
C794: x27+x42-y27_42 <=1 
C795: x27+x43 <=1 
C796: x27+x44 <=1 
C797: x27+x45-y27_45 <=1 
C798: x27+x49 <=1 
C799: x27+x50 <=1 
C800: x27+x51-y27_51 <=1 
C801: x27+x52 <=1 
C802: x27+x53-y27_53 <=1 
C803: x27+x54 <=1 
C804: x27+x56 <=1 
C805: x27+x57 <=1 
C806: x27+x58-y27_58 <=1 
C807: x27+x59 <=1 
C808: x27+x61-y27_61 <=1 
C809: x28+x29 <=1 
C810: x28+x30 <=1 
C811: x28+x31 <=1 
C812: x28+x33-y28_33 <=1 
C813: x28+x34 <=1 
C814: x28+x35 <=1 
C815: x28+x39-y28_39 <=1 
C816: x28+x40-y28_40 <=1 
C817: x28+x42-y28_42 <=1 
C818: x28+x43-y28_43 <=1 
C819: x28+x44 <=1 
C820: x28+x45 <=1 
C821: x28+x46-y28_46 <=1 
C822: x28+x49-y28_49 <=1 
C823: x28+x51-y28_51 <=1 
C824: x28+x52-y28_52 <=1 
C825: x28+x53-y28_53 <=1 
C826: x28+x54-y28_54 <=1 
C827: x28+x55-y28_55 <=1 
C828: x28+x57-y28_57 <=1 
C829: x28+x58-y28_58 <=1 
C830: x28+x59 <=1 
C831: x29+x30-y29_30 <=1 
C832: x29+x32-y29_32 <=1 
C833: x29+x33-y29_33 <=1 
C834: x29+x35 <=1 
C835: x29+x36-y29_36 <=1 
C836: x29+x37-y29_37 <=1 
C837: x29+x38 <=1 
C838: x29+x39-y29_39 <=1 
C839: x29+x47 <=1 
C840: x29+x53-y29_53 <=1 
C841: x29+x54 <=1 
C842: x29+x57 <=1 
C843: x29+x59-y29_59 <=1 
C844: x29+x60-y29_60 <=1 
C845: x29+x61 <=1 
C846: x30+x31 <=1 
C847: x30+x33-y30_33 <=1 
C848: x30+x35-y30_35 <=1 
C849: x30+x36 <=1 
C850: x30+x37 <=1 
C851: x30+x39-y30_39 <=1 
C852: x30+x43-y30_43 <=1 
C853: x30+x48 <=1 
C854: x30+x49 <=1 
C855: x30+x56 <=1 
C856: x30+x57-y30_57 <=1 
C857: x30+x58 <=1 
C858: x30+x60-y30_60 <=1 
C859: x30+x61 <=1 
C860: x31+x33-y31_33 <=1 
C861: x31+x34 <=1 
C862: x31+x38 <=1 
C863: x31+x39-y31_39 <=1 
C864: x31+x40 <=1 
C865: x31+x42-y31_42 <=1 
C866: x31+x43-y31_43 <=1 
C867: x31+x47-y31_47 <=1 
C868: x31+x48-y31_48 <=1 
C869: x31+x50-y31_50 <=1 
C870: x31+x51 <=1 
C871: x31+x52 <=1 
C872: x31+x53-y31_53 <=1 
C873: x31+x54-y31_54 <=1 
C874: x31+x55-y31_55 <=1 
C875: x31+x57-y31_57 <=1 
C876: x31+x58-y31_58 <=1 
C877: x31+x59 <=1 
C878: x31+x60 <=1 
C879: x32+x35 <=1 
C880: x32+x36 <=1 
C881: x32+x38 <=1 
C882: x32+x39 <=1 
C883: x32+x41 <=1 
C884: x32+x42-y32_42 <=1 
C885: x32+x44-y32_44 <=1 
C886: x32+x46-y32_46 <=1 
C887: x32+x47-y32_47 <=1 
C888: x32+x48-y32_48 <=1 
C889: x32+x49 <=1 
C890: x32+x52 <=1 
C891: x32+x54-y32_54 <=1 
C892: x32+x56-y32_56 <=1 
C893: x32+x57-y32_57 <=1 
C894: x32+x58-y32_58 <=1 
C895: x32+x59 <=1 
C896: x32+x60-y32_60 <=1 
C897: x33+x34 <=1 
C898: x33+x35-y33_35 <=1 
C899: x33+x38 <=1 
C900: x33+x39 <=1 
C901: x33+x40 <=1 
C902: x33+x42-y33_42 <=1 
C903: x33+x43 <=1 
C904: x33+x44-y33_44 <=1 
C905: x33+x46 <=1 
C906: x33+x47-y33_47 <=1 
C907: x33+x50-y33_50 <=1 
C908: x33+x51-y33_51 <=1 
C909: x33+x55-y33_55 <=1 
C910: x33+x57-y33_57 <=1 
C911: x33+x58-y33_58 <=1 
C912: x33+x59 <=1 
C913: x34+x35-y34_35 <=1 
C914: x34+x36-y34_36 <=1 
C915: x34+x37-y34_37 <=1 
C916: x34+x39-y34_39 <=1 
C917: x34+x41 <=1 
C918: x34+x42-y34_42 <=1 
C919: x34+x43 <=1 
C920: x34+x45 <=1 
C921: x34+x47 <=1 
C922: x34+x48 <=1 
C923: x34+x49 <=1 
C924: x34+x50 <=1 
C925: x34+x52 <=1 
C926: x34+x53 <=1 
C927: x34+x54 <=1 
C928: x34+x57-y34_57 <=1 
C929: x34+x58-y34_58 <=1 
C930: x34+x59-y34_59 <=1 
C931: x34+x60-y34_60 <=1 
C932: x35+x37-y35_37 <=1 
C933: x35+x38 <=1 
C934: x35+x39-y35_39 <=1 
C935: x35+x40-y35_40 <=1 
C936: x35+x41-y35_41 <=1 
C937: x35+x42-y35_42 <=1 
C938: x35+x44-y35_44 <=1 
C939: x35+x46 <=1 
C940: x35+x47 <=1 
C941: x35+x48 <=1 
C942: x35+x50-y35_50 <=1 
C943: x35+x51-y35_51 <=1 
C944: x35+x54-y35_54 <=1 
C945: x35+x59 <=1 
C946: x35+x60 <=1 
C947: x36+x37-y36_37 <=1 
C948: x36+x39-y36_39 <=1 
C949: x36+x41 <=1 
C950: x36+x42 <=1 
C951: x36+x43-y36_43 <=1 
C952: x36+x44-y36_44 <=1 
C953: x36+x45-y36_45 <=1 
C954: x36+x48-y36_48 <=1 
C955: x36+x49-y36_49 <=1 
C956: x36+x50 <=1 
C957: x36+x51 <=1 
C958: x36+x52-y36_52 <=1 
C959: x36+x54-y36_54 <=1 
C960: x36+x56-y36_56 <=1 
C961: x36+x57 <=1 
C962: x36+x58 <=1 
C963: x36+x61-y36_61 <=1 
C964: x37+x40 <=1 
C965: x37+x41 <=1 
C966: x37+x42-y37_42 <=1 
C967: x37+x43-y37_43 <=1 
C968: x37+x44 <=1 
C969: x37+x45 <=1 
C970: x37+x46 <=1 
C971: x37+x47-y37_47 <=1 
C972: x37+x51-y37_51 <=1 
C973: x37+x52 <=1 
C974: x37+x55 <=1 
C975: x37+x57-y37_57 <=1 
C976: x37+x59 <=1 
C977: x37+x60 <=1 
C978: x38+x41-y38_41 <=1 
C979: x38+x43 <=1 
C980: x38+x46 <=1 
C981: x38+x52 <=1 
C982: x38+x53 <=1 
C983: x38+x55 <=1 
C984: x38+x57 <=1 
C985: x38+x58 <=1 
C986: x38+x59 <=1 
C987: x38+x60-y38_60 <=1 
C988: x38+x61-y38_61 <=1 
C989: x39+x40 <=1 
C990: x39+x42-y39_42 <=1 
C991: x39+x44-y39_44 <=1 
C992: x39+x45 <=1 
C993: x39+x46-y39_46 <=1 
C994: x39+x47 <=1 
C995: x39+x49-y39_49 <=1 
C996: x39+x51 <=1 
C997: x39+x54-y39_54 <=1 
C998: x39+x55 <=1 
C999: x39+x56-y39_56 <=1 
C1000: x39+x57 <=1 
C1001: x39+x58-y39_58 <=1 
C1002: x39+x61 <=1 
C1003: x40+x42 <=1 
C1004: x40+x43 <=1 
C1005: x40+x44 <=1 
C1006: x40+x45-y40_45 <=1 
C1007: x40+x46-y40_46 <=1 
C1008: x40+x50-y40_50 <=1 
C1009: x40+x51 <=1 
C1010: x40+x52 <=1 
C1011: x40+x54-y40_54 <=1 
C1012: x40+x55-y40_55 <=1 
C1013: x40+x56 <=1 
C1014: x40+x58 <=1 
C1015: x40+x61 <=1 
C1016: x41+x43-y41_43 <=1 
C1017: x41+x46-y41_46 <=1 
C1018: x41+x47-y41_47 <=1 
C1019: x41+x48 <=1 
C1020: x41+x49-y41_49 <=1 
C1021: x41+x52 <=1 
C1022: x41+x53 <=1 
C1023: x41+x55 <=1 
C1024: x41+x56 <=1 
C1025: x41+x58-y41_58 <=1 
C1026: x41+x59 <=1 
C1027: x42+x43-y42_43 <=1 
C1028: x42+x47-y42_47 <=1 
C1029: x42+x48-y42_48 <=1 
C1030: x42+x50-y42_50 <=1 
C1031: x42+x53 <=1 
C1032: x42+x54-y42_54 <=1 
C1033: x42+x55-y42_55 <=1 
C1034: x42+x56 <=1 
C1035: x42+x57 <=1 
C1036: x42+x58 <=1 
C1037: x42+x61 <=1 
C1038: x43+x45 <=1 
C1039: x43+x46 <=1 
C1040: x43+x49 <=1 
C1041: x43+x50-y43_50 <=1 
C1042: x43+x54 <=1 
C1043: x43+x55-y43_55 <=1 
C1044: x43+x58-y43_58 <=1 
C1045: x43+x59 <=1 
C1046: x43+x61-y43_61 <=1 
C1047: x44+x45 <=1 
C1048: x44+x46 <=1 
C1049: x44+x47-y44_47 <=1 
C1050: x44+x51-y44_51 <=1 
C1051: x44+x54 <=1 
C1052: x44+x55-y44_55 <=1 
C1053: x44+x56 <=1 
C1054: x44+x57-y44_57 <=1 
C1055: x44+x58 <=1 
C1056: x45+x46 <=1 
C1057: x45+x47 <=1 
C1058: x45+x48-y45_48 <=1 
C1059: x45+x49-y45_49 <=1 
C1060: x45+x51 <=1 
C1061: x45+x54-y45_54 <=1 
C1062: x45+x56-y45_56 <=1 
C1063: x45+x57-y45_57 <=1 
C1064: x45+x58 <=1 
C1065: x45+x59-y45_59 <=1 
C1066: x45+x60 <=1 
C1067: x45+x61-y45_61 <=1 
C1068: x46+x48-y46_48 <=1 
C1069: x46+x49-y46_49 <=1 
C1070: x46+x50-y46_50 <=1 
C1071: x46+x51 <=1 
C1072: x46+x52 <=1 
C1073: x46+x53 <=1 
C1074: x46+x55-y46_55 <=1 
C1075: x46+x56 <=1 
C1076: x46+x57 <=1 
C1077: x46+x59-y46_59 <=1 
C1078: x46+x61 <=1 
C1079: x47+x48 <=1 
C1080: x47+x49 <=1 
C1081: x47+x50 <=1 
C1082: x47+x53-y47_53 <=1 
C1083: x47+x55 <=1 
C1084: x47+x56-y47_56 <=1 
C1085: x47+x57-y47_57 <=1 
C1086: x47+x59-y47_59 <=1 
C1087: x47+x61 <=1 
C1088: x48+x50 <=1 
C1089: x48+x51 <=1 
C1090: x48+x52-y48_52 <=1 
C1091: x48+x53 <=1 
C1092: x48+x54 <=1 
C1093: x48+x55 <=1 
C1094: x48+x56-y48_56 <=1 
C1095: x48+x58 <=1 
C1096: x48+x60 <=1 
C1097: x48+x61 <=1 
C1098: x49+x51 <=1 
C1099: x49+x52 <=1 
C1100: x49+x55 <=1 
C1101: x49+x56 <=1 
C1102: x49+x59-y49_59 <=1 
C1103: x49+x60 <=1 
C1104: x49+x61 <=1 
C1105: x50+x51-y50_51 <=1 
C1106: x50+x54 <=1 
C1107: x50+x56 <=1 
C1108: x50+x57-y50_57 <=1 
C1109: x50+x59 <=1 
C1110: x50+x60-y50_60 <=1 
C1111: x50+x61-y50_61 <=1 
C1112: x51+x52-y51_52 <=1 
C1113: x51+x54 <=1 
C1114: x51+x55-y51_55 <=1 
C1115: x51+x56 <=1 
C1116: x51+x58-y51_58 <=1 
C1117: x51+x59 <=1 
C1118: x51+x60-y51_60 <=1 
C1119: x51+x61-y51_61 <=1 
C1120: x52+x53-y52_53 <=1 
C1121: x52+x55-y52_55 <=1 
C1122: x52+x56-y52_56 <=1 
C1123: x52+x58 <=1 
C1124: x52+x59-y52_59 <=1 
C1125: x52+x60-y52_60 <=1 
C1126: x52+x61-y52_61 <=1 
C1127: x53+x54-y53_54 <=1 
C1128: x53+x57 <=1 
C1129: x53+x60 <=1 
C1130: x53+x61-y53_61 <=1 
C1131: x54+x61-y54_61 <=1 
C1132: x55+x58-y55_58 <=1 
C1133: x55+x59 <=1 
C1134: x55+x60 <=1 
C1135: x55+x61-y55_61 <=1 
C1136: x56+x59-y56_59 <=1 
C1137: x57+x60-y57_60 <=1 
C1138: x57+x61 <=1 
C1139: x58+x59-y58_59 <=1 
C1140: x59+x60-y59_60 <=1 
C1141: x59+x61 <=1 
C1142: x60+x61-y60_61 <=1 

binary
x0
x1
x2
x3
x4
x5
x6
x7
x8
x9
x10
x11
x12
x13
x14
x15
x16
x17
x18
x19
x20
x21
x22
x23
x24
x25
x26
x27
x28
x29
x30
x31
x32
x33
x34
x35
x36
x37
x38
x39
x40
x41
x42
x43
x44
x45
x46
x47
x48
x49
x50
x51
x52
x53
x54
x55
x56
x57
x58
x59
x60
x61
